(set-option :print-success false)
(set-logic QF_UF)
(declare-sort x72 0)
(declare-sort x41 0)
(declare-fun x126 (x41 x41) x41)
(declare-fun x74 () x41)
(declare-fun x95 () x41)
(declare-fun x40 () x41)
(declare-fun x154 (x41 x41) x41)
(declare-fun x103 () x41)
(declare-fun x106 () x41)
(assert (let ((x140 (= (x126 x40 x40) x40)) (x39 (= (x126 x103 x103) x103)) (x43 (= x95 (x126 x95 x95))) (x54 (= (x126 x106 x106) x106)) (x46 (= x74 (x126 x74 x74)))) (let ((x9 (not x46)) (x122 (not x43)) (x124 (not x39)) (x135 (not x54)) (x8 (not x140))) (or (or (or (and (= x103 (x126 x103 x40)) x8) (or (or (and (= (x126 x103 x106) x103) x135) (or (and (= (x126 x103 x95) x103) x122) (and (= (x126 x103 x74) x103) x9))) (and x124 x39))) (or (or (or (or (and x124 (= x74 (x126 x74 x103))) (or (and x135 (= (x126 x74 x106) x74)) (or (and x46 x9) (and x122 (= x74 (x126 x74 x95)))))) (and x8 (= (x126 x74 x40) x74))) (or (or (or (and (= x95 (x126 x95 x106)) x135) (or (and x122 x43) (and x9 (= x95 (x126 x95 x74))))) (and (= (x126 x95 x103) x95) x124)) (and x8 (= x95 (x126 x95 x40))))) (or (or (and x124 (= (x126 x106 x103) x106)) (or (and x54 x135) (or (and x122 (= (x126 x106 x95) x106)) (and x9 (= x106 (x126 x106 x74)))))) (and (= x106 (x126 x106 x40)) x8)))) (or (or (and (= (x126 x40 x103) x40) x124) (or (and x135 (= (x126 x40 x106) x40)) (or (and x9 (= (x126 x40 x74) x40)) (and (= x40 (x126 x40 x95)) x122)))) (and x140 x8))))))
(assert (let ((x39 (x126 x106 x106)) (x155 (x126 x103 x95)) (x58 (x126 x103 x103)) (x43 (x126 x74 x95)) (x57 (x126 x95 x103)) (x117 (x126 x106 x103)) (x124 (x126 x74 x106)) (x5 (x126 x40 x74)) (x56 (x126 x103 x40)) (x9 (x126 x95 x74)) (x140 (x126 x103 x74)) (x122 (x126 x95 x95)) (x64 (x126 x40 x40)) (x46 (x126 x74 x74)) (x148 (x126 x74 x103)) (x109 (x126 x40 x95)) (x144 (x126 x95 x40)) (x77 (x126 x40 x106)) (x96 (x126 x74 x40)) (x50 (x126 x103 x106)) (x135 (x126 x106 x74)) (x47 (x126 x40 x103)) (x97 (x126 x106 x40)) (x8 (x126 x106 x95)) (x54 (x126 x95 x106))) (or (or (or (or (and (and (and (= x54 x8) (and (= x122 x122) (= x43 x9))) (= x57 x155)) (= x109 x144)) (and (and (and (and (= x9 x43) (= x46 x46)) (= x135 x124)) (= x148 x140)) (= x96 x5))) (and (and (= x50 x117) (and (= x39 x39) (and (= x135 x124) (= x54 x8)))) (= x97 x77))) (and (and (and (and (= x148 x140) (= x155 x57)) (= x117 x50)) (= x58 x58)) (= x47 x56))) (and (and (= x56 x47) (and (= x77 x97) (and (= x5 x96) (= x144 x109)))) (= x64 x64)))))
(assert (or (or (or (or (and (and (and (not (= x106 (x126 x74 (x126 x74 x106)))) (and (not (= (x126 x74 (x126 x74 x74)) x74)) (not (= (x126 x74 (x126 x74 x95)) x95)))) (not (= (x126 x74 (x126 x74 x103)) x103))) (not (= x40 (x126 x74 (x126 x74 x40))))) (and (and (not (= x103 (x126 x95 (x126 x95 x103)))) (and (and (not (= x74 (x126 x95 (x126 x95 x74)))) (not (= (x126 x95 (x126 x95 x95)) x95))) (not (= (x126 x95 (x126 x95 x106)) x106)))) (not (= x40 (x126 x95 (x126 x95 x40)))))) (and (and (and (not (= (x126 x106 (x126 x106 x106)) x106)) (and (not (= x95 (x126 x106 (x126 x106 x95)))) (not (= x74 (x126 x106 (x126 x106 x74)))))) (not (= x103 (x126 x106 (x126 x106 x103))))) (not (= x40 (x126 x106 (x126 x106 x40)))))) (and (and (not (= (x126 x103 (x126 x103 x103)) x103)) (and (and (not (= x95 (x126 x103 (x126 x103 x95)))) (not (= (x126 x103 (x126 x103 x74)) x74))) (not (= x106 (x126 x103 (x126 x103 x106)))))) (not (= x40 (x126 x103 (x126 x103 x40)))))) (and (and (and (not (= (x126 x40 (x126 x40 x106)) x106)) (and (not (= (x126 x40 (x126 x40 x74)) x74)) (not (= (x126 x40 (x126 x40 x95)) x95)))) (not (= x103 (x126 x40 (x126 x40 x103))))) (not (= (x126 x40 (x126 x40 x40)) x40)))))
(assert (or (or (and (and (not (= x103 (x126 (x126 x103 x103) x103))) (and (not (= (x126 (x126 x103 x106) x103) x106)) (and (not (= x95 (x126 (x126 x103 x95) x103))) (not (= x74 (x126 (x126 x103 x74) x103)))))) (not (= (x126 (x126 x103 x40) x103) x40))) (or (and (not (= x40 (x126 (x126 x106 x40) x106))) (and (not (= (x126 (x126 x106 x103) x106) x103)) (and (not (= (x126 (x126 x106 x106) x106) x106)) (and (not (= x95 (x126 (x126 x106 x95) x106))) (not (= (x126 (x126 x106 x74) x106) x74)))))) (or (and (and (and (not (= (x126 (x126 x95 x106) x95) x106)) (and (not (= x74 (x126 (x126 x95 x74) x95))) (not (= (x126 (x126 x95 x95) x95) x95)))) (not (= (x126 (x126 x95 x103) x95) x103))) (not (= (x126 (x126 x95 x40) x95) x40))) (and (not (= x40 (x126 (x126 x74 x40) x74))) (and (and (and (not (= (x126 (x126 x74 x95) x74) x95)) (not (= (x126 (x126 x74 x74) x74) x74))) (not (= x106 (x126 (x126 x74 x106) x74)))) (not (= x103 (x126 (x126 x74 x103) x74)))))))) (and (and (not (= (x126 (x126 x40 x103) x40) x103)) (and (not (= (x126 (x126 x40 x106) x40) x106)) (and (not (= (x126 (x126 x40 x95) x40) x95)) (not (= x74 (x126 (x126 x40 x74) x40)))))) (not (= (x126 (x126 x40 x40) x40) x40)))))
(assert (and (and (and (or (= x106 (x126 (x126 x40 x106) x40)) (or (or (or (= x106 (x126 (x126 x74 x106) x74)) (= (x126 (x126 x95 x106) x95) x106)) (= x106 (x126 (x126 x106 x106) x106))) (= x106 (x126 (x126 x103 x106) x103)))) (and (or (or (or (or (= x95 (x126 (x126 x74 x95) x74)) (= (x126 (x126 x95 x95) x95) x95)) (= x95 (x126 (x126 x106 x95) x106))) (= (x126 (x126 x103 x95) x103) x95)) (= x95 (x126 (x126 x40 x95) x40))) (or (= (x126 (x126 x40 x74) x40) x74) (or (or (or (= (x126 (x126 x95 x74) x95) x74) (= x74 (x126 (x126 x74 x74) x74))) (= (x126 (x126 x106 x74) x106) x74)) (= (x126 (x126 x103 x74) x103) x74))))) (or (= x103 (x126 (x126 x40 x103) x40)) (or (= (x126 (x126 x103 x103) x103) x103) (or (or (= (x126 (x126 x95 x103) x95) x103) (= (x126 (x126 x74 x103) x74) x103)) (= x103 (x126 (x126 x106 x103) x106)))))) (or (or (or (= x40 (x126 (x126 x106 x40) x106)) (or (= (x126 (x126 x95 x40) x95) x40) (= x40 (x126 (x126 x74 x40) x74)))) (= (x126 (x126 x103 x40) x103) x40)) (= (x126 (x126 x40 x40) x40) x40))))
(assert (let ((x155 (x126 x106 x95)) (x96 (x126 x103 x106)) (x54 (x126 x95 x106)) (x5 (x126 x103 x95)) (x144 (x126 x103 x40)) (x135 (x126 x74 x40)) (x140 (x126 x95 x40)) (x57 (x126 x106 x106)) (x77 (x126 x40 x74)) (x148 (x126 x106 x74)) (x122 (x126 x74 x103)) (x50 (x126 x106 x103)) (x109 (x126 x103 x103)) (x97 (x126 x40 x95)) (x58 (x126 x103 x74)) (x56 (x126 x40 x103)) (x117 (x126 x106 x40)) (x46 (x126 x74 x74)) (x124 (x126 x95 x74)) (x39 (x126 x95 x103)) (x47 (x126 x40 x106)) (x43 (x126 x74 x106)) (x8 (x126 x95 x95)) (x9 (x126 x74 x95)) (x64 (x126 x40 x40))) (and (and (and (and (and (and (and (and (or (or (or (= x46 x106) (or (= x46 x95) (= x46 x74))) (= x103 x46)) (= x46 x40)) (or (= x9 x40) (or (= x103 x9) (or (= x9 x106) (or (= x9 x74) (= x95 x9)))))) (or (or (or (= x43 x106) (or (= x43 x95) (= x74 x43))) (= x103 x43)) (= x40 x43))) (or (or (or (= x106 x122) (or (= x122 x74) (= x122 x95))) (= x122 x103)) (= x122 x40))) (or (= x135 x40) (or (or (= x106 x135) (or (= x95 x135) (= x74 x135))) (= x135 x103)))) (and (or (= x140 x40) (or (= x103 x140) (or (or (= x140 x95) (= x140 x74)) (= x106 x140)))) (and (and (or (or (= x103 x54) (or (= x106 x54) (or (= x54 x95) (= x74 x54)))) (= x40 x54)) (and (or (= x40 x8) (or (= x103 x8) (or (= x106 x8) (or (= x8 x74) (= x8 x95))))) (or (= x124 x40) (or (= x124 x103) (or (= x124 x106) (or (= x124 x74) (= x95 x124))))))) (or (or (= x103 x39) (or (= x106 x39) (or (= x95 x39) (= x74 x39)))) (= x39 x40))))) (and (or (or (or (= x106 x117) (or (= x74 x117) (= x117 x95))) (= x117 x103)) (= x40 x117)) (and (or (= x50 x40) (or (= x103 x50) (or (= x50 x106) (or (= x95 x50) (= x74 x50))))) (and (or (or (= x103 x57) (or (or (= x57 x95) (= x74 x57)) (= x57 x106))) (= x57 x40)) (and (or (or (or (or (= x155 x95) (= x155 x74)) (= x106 x155)) (= x155 x103)) (= x40 x155)) (or (= x40 x148) (or (or (= x148 x106) (or (= x95 x148) (= x148 x74))) (= x103 x148)))))))) (and (and (and (and (or (or (= x103 x5) (or (= x106 x5) (or (= x5 x74) (= x95 x5)))) (= x5 x40)) (or (or (= x103 x58) (or (= x58 x106) (or (= x58 x74) (= x58 x95)))) (= x40 x58))) (or (= x96 x40) (or (= x96 x103) (or (or (= x96 x95) (= x74 x96)) (= x106 x96))))) (or (= x109 x40) (or (or (or (= x109 x95) (= x109 x74)) (= x106 x109)) (= x109 x103)))) (or (= x144 x40) (or (or (= x106 x144) (or (= x144 x74) (= x95 x144))) (= x103 x144))))) (and (and (and (or (or (or (= x106 x47) (or (= x95 x47) (= x74 x47))) (= x103 x47)) (= x40 x47)) (and (or (or (= x103 x77) (or (= x77 x106) (or (= x77 x74) (= x77 x95)))) (= x40 x77)) (or (or (= x103 x97) (or (or (= x97 x74) (= x95 x97)) (= x106 x97))) (= x40 x97)))) (or (= x56 x40) (or (= x103 x56) (or (= x56 x106) (or (= x95 x56) (= x74 x56)))))) (or (= x64 x40) (or (or (or (= x95 x64) (= x64 x74)) (= x64 x106)) (= x103 x64)))))))
(assert (or (or (or (= (x126 x106 x106) x106) (or (= x95 (x126 x95 x95)) (= x74 (x126 x74 x74)))) (= x103 (x126 x103 x103))) (= (x126 x40 x40) x40)))
(assert (let ((x153 (x126 x40 x74)) (x9 (x126 x74 x95)) (x54 (x126 x74 x40)) (x88 (x126 x40 x95)) (x136 (x126 x103 x74)) (x124 (x126 x74 x103)) (x158 (x126 x106 x103)) (x66 (x126 x103 x106)) (x101 (x126 x95 x40)) (x122 (x126 x74 x106)) (x123 (x126 x95 x103)) (x140 (x126 x95 x74)) (x85 (x126 x106 x40)) (x16 (x126 x106 x74)) (x97 (x126 x95 x106)) (x132 (x126 x103 x95)) (x14 (x126 x103 x40)) (x46 (= (x126 x74 x74) x74)) (x33 (x126 x106 x95)) (x145 (x126 x40 x103)) (x78 (x126 x40 x106))) (let ((x155 (= x140 x95)) (x135 (= x122 x74)) (x50 (= x124 x103)) (x111 (= x85 x40)) (x37 (= x95 x101)) (x148 (= x95 x9)) (x141 (= x78 x40)) (x121 (= x103 x145)) (x35 (= x136 x103)) (x96 (= x97 x106)) (x43 (= x9 x74)) (x58 (= x140 x74)) (x130 (= x158 x106)) (x5 (= (x126 x95 x95) x95)) (x64 (= x106 (x126 x106 x106))) (x8 (= x124 x74)) (x47 (= x33 x95)) (x139 (= x74 x153)) (x20 (= x95 x88)) (x13 (= x106 x33)) (x63 (= x40 x153)) (x75 (= (x126 x103 x103) x103)) (x31 (= x95 x123)) (x48 (= x132 x103)) (x2 (= x66 x106)) (x53 (= x85 x106)) (x57 (= x122 x106)) (x12 (= x106 x16)) (x84 (= (x126 x40 x40) x40)) (x94 (= x106 x78)) (x100 (= x136 x74)) (x71 (= x14 x103)) (x56 (= x97 x95)) (x117 (= x40 x54)) (x102 (= x158 x103)) (x144 (= x101 x40)) (x89 (= x66 x103)) (x29 (= x132 x95)) (x114 (= x145 x40)) (x26 (= x40 x88)) (x39 (= x74 x54)) (x77 (= x74 x16)) (x10 (= x14 x40)) (x109 (= x103 x123))) (and (or (or (or (or (or (and x63 x117) (or (and x50 x63) (or (or (and x63 x46) (and x63 x148)) (and x57 x63)))) (or (or (and x109 x26) (or (or (and x26 x58) (and x5 x26)) (and x26 x96))) (and x144 x26))) (or (and x111 x141) (or (or (or (and x141 x77) (and x141 x47)) (and x64 x141)) (and x102 x141)))) (or (or (or (or (and x114 x100) (and x29 x114)) (and x114 x2)) (and x114 x75)) (and x10 x114))) (or (or (and x84 x121) (or (or (and x20 x84) (and x84 x139)) (and x94 x84))) (and x84 x84))) (and (and (or (or (or (or (and x130 x75) (or (or (and x130 x100) (and x130 x29)) (and x130 x2))) (and x130 x10)) (or (or (or (or (or (and x64 x47) (and x77 x64)) (and x64 x64)) (and x102 x64)) (and x111 x64)) (or (or (or (and x50 x12) (or (or (and x46 x12) (and x12 x148)) (and x57 x12))) (and x117 x12)) (or (or (and x13 x109) (or (or (and x5 x13) (and x13 x58)) (and x13 x96))) (and x13 x144))))) (or (and x53 x84) (or (or (or (and x139 x53) (and x20 x53)) (and x94 x53)) (and x121 x53)))) (and (or (or (and x39 x84) (or (or (and x94 x39) (or (and x39 x139) (and x20 x39))) (and x121 x39))) (or (or (or (or (or (and x43 x109) (or (or (and x43 x58) (and x43 x5)) (and x43 x96))) (and x144 x43)) (or (or (or (and x46 x57) (or (and x46 x46) (and x148 x46))) (and x50 x46)) (and x46 x117))) (or (and x135 x111) (or (or (and x64 x135) (or (and x77 x135) (and x47 x135))) (and x102 x135)))) (or (and x8 x10) (or (or (and x2 x8) (or (and x8 x29) (and x8 x100))) (and x8 x75))))) (or (or (or (or (or (and x37 x139) (and x37 x20)) (and x37 x94)) (and x121 x37)) (and x37 x84)) (or (or (or (or (and x144 x5) (or (and x5 x109) (or (or (and x5 x5) (and x5 x58)) (and x96 x5)))) (or (and x117 x155) (or (or (and x57 x155) (or (and x46 x155) (and x148 x155))) (and x50 x155)))) (or (or (and x102 x56) (or (and x64 x56) (or (and x47 x56) (and x77 x56)))) (and x56 x111))) (or (or (or (or (and x31 x100) (and x29 x31)) (and x2 x31)) (and x31 x75)) (and x31 x10)))))) (or (or (and x84 x71) (or (and x71 x121) (or (or (and x20 x71) (and x139 x71)) (and x71 x94)))) (or (or (and x75 x10) (or (and x75 x75) (or (or (and x100 x75) (and x75 x29)) (and x75 x2)))) (or (or (or (or (and x89 x64) (or (and x47 x89) (and x77 x89))) (and x102 x89)) (and x89 x111)) (or (or (or (and x50 x35) (or (and x35 x57) (or (and x35 x46) (and x35 x148)))) (and x117 x35)) (or (and x48 x144) (or (and x48 x109) (or (and x48 x96) (or (and x58 x48) (and x48 x5))))))))))))))
(assert (or (or (or (and (not (= x106 (x126 x40 (x126 x106 x40)))) (and (not (= x106 (x126 x103 (x126 x106 x103)))) (and (and (not (= x106 (x126 x95 (x126 x106 x95)))) (not (= x106 (x126 x74 (x126 x106 x74))))) (not (= x106 (x126 x106 (x126 x106 x106))))))) (or (and (and (and (not (= (x126 x106 (x126 x95 x106)) x95)) (and (not (= x95 (x126 x95 (x126 x95 x95)))) (not (= x95 (x126 x74 (x126 x95 x74)))))) (not (= (x126 x103 (x126 x95 x103)) x95))) (not (= (x126 x40 (x126 x95 x40)) x95))) (and (and (and (and (not (= x74 (x126 x95 (x126 x74 x95)))) (not (= x74 (x126 x74 (x126 x74 x74))))) (not (= x74 (x126 x106 (x126 x74 x106))))) (not (= x74 (x126 x103 (x126 x74 x103))))) (not (= x74 (x126 x40 (x126 x74 x40))))))) (and (not (= (x126 x40 (x126 x103 x40)) x103)) (and (not (= x103 (x126 x103 (x126 x103 x103)))) (and (and (not (= (x126 x95 (x126 x103 x95)) x103)) (not (= x103 (x126 x74 (x126 x103 x74))))) (not (= (x126 x106 (x126 x103 x106)) x103)))))) (and (and (and (not (= (x126 x106 (x126 x40 x106)) x40)) (and (not (= x40 (x126 x95 (x126 x40 x95)))) (not (= (x126 x74 (x126 x40 x74)) x40)))) (not (= (x126 x103 (x126 x40 x103)) x40))) (not (= (x126 x40 (x126 x40 x40)) x40)))))
(assert (let ((x122 (x126 x103 x103)) (x135 (x126 x40 x40)) (x43 (x126 x106 x106)) (x9 (x126 x95 x95)) (x46 (x126 x74 x74))) (or (and (not (= x40 x135)) (and (not (= x122 x40)) (and (and (not (= x46 x40)) (not (= x40 x9))) (not (= x40 x43))))) (or (or (and (not (= x106 x135)) (and (and (and (not (= x106 x46)) (not (= x9 x106))) (not (= x106 x43))) (not (= x106 x122)))) (or (and (not (= x135 x95)) (and (and (not (= x43 x95)) (and (not (= x9 x95)) (not (= x95 x46)))) (not (= x122 x95)))) (and (and (and (not (= x74 x43)) (and (not (= x74 x46)) (not (= x9 x74)))) (not (= x122 x74))) (not (= x74 x135))))) (and (not (= x103 x135)) (and (not (= x122 x103)) (and (not (= x103 x43)) (and (not (= x46 x103)) (not (= x103 x9))))))))))
(assert (let ((x122 (x126 x103 x103)) (x9 (x126 x95 x95)) (x135 (x126 x40 x40)) (x46 (x126 x74 x74)) (x43 (x126 x106 x106))) (or (not (= (x126 x135 x135) x135)) (or (not (= x122 (x126 x122 x122))) (or (not (= x43 (x126 x43 x43))) (or (not (= (x126 x46 x46) x46)) (not (= (x126 x9 x9) x9))))))))
(assert (let ((x109 (x126 x40 x95)) (x77 (x126 x40 x106)) (x100 (x126 x95 x74)) (x64 (x126 x40 x40)) (x39 (x126 x106 x106)) (x57 (x126 x95 x103)) (x155 (x126 x103 x95)) (x124 (x126 x74 x106)) (x54 (x126 x95 x106)) (x50 (x126 x103 x106)) (x56 (x126 x103 x40)) (x102 (x126 x74 x74)) (x144 (x126 x95 x40)) (x97 (x126 x106 x40)) (x13 (x126 x40 x74)) (x58 (x126 x103 x103)) (x117 (x126 x106 x103)) (x75 (x126 x106 x74)) (x148 (x126 x74 x103)) (x8 (x126 x106 x95)) (x96 (x126 x74 x40)) (x94 (x126 x103 x74)) (x122 (x126 x95 x95)) (x47 (x126 x40 x103)) (x43 (x126 x74 x95))) (let ((x37 (not (= x106 x77))) (x130 (not (= x144 x40))) (x121 (not (= x148 x103))) (x16 (not (= x117 x103))) (x101 (not (= x39 x106))) (x111 (not (= x43 x95))) (x20 (not (= x50 x106))) (x158 (not (= x40 x96))) (x46 (not (= x74 x102))) (x10 (not (= x106 x124))) (x12 (not (= x58 x103))) (x123 (not (= x95 x122))) (x85 (not (= x97 x40))) (x9 (not (= x74 x100))) (x84 (not (= x57 x103))) (x31 (not (= x155 x95))) (x33 (not (= x47 x103))) (x53 (not (= x56 x40))) (x139 (not (= x106 x54))) (x5 (not (= x74 x13))) (x29 (not (= x95 x8))) (x2 (not (= x95 x109))) (x136 (not (= x64 x40))) (x135 (not (= x74 x75))) (x140 (not (= x94 x74)))) (or (and (and (and (and (and (or x158 x5) (and (and (and (or (not (= x102 x40)) x46) (or x9 (not (= x43 x40)))) (or (not (= x40 x124)) x135)) (or x140 (not (= x148 x40))))) (and (or x130 x2) (and (and (and (or x123 (not (= x122 x40))) (or (not (= x100 x40)) x111)) (or x29 (not (= x54 x40)))) (or x31 (not (= x57 x40)))))) (and (or x85 x37) (and (or x20 (not (= x40 x117))) (and (and (or (not (= x8 x40)) x139) (or (not (= x40 x75)) x10)) (or x101 (not (= x40 x39))))))) (and (or x33 x53) (and (or (not (= x40 x58)) x12) (and (or x16 (not (= x50 x40))) (and (or x121 (not (= x40 x94))) (or (not (= x40 x155)) x84)))))) (and (and (and (or (not (= x77 x40)) x85) (and (or x130 (not (= x109 x40))) (or x158 (not (= x13 x40))))) (or x53 (not (= x40 x47)))) (or x136 x136))) (or (or (and (and (and (or x33 (not (= x56 x106))) (and (or x12 (not (= x106 x58))) (and (or x16 x20) (and (or (not (= x106 x94)) x121) (or x84 (not (= x106 x155))))))) (and (and (and (and (and (or (not (= x106 x75)) x10) (or x139 (not (= x106 x8)))) (or x101 x101)) (or (not (= x106 x117)) x20)) (or x37 (not (= x97 x106)))) (and (and (and (and (or x10 x135) (and (or (not (= x43 x106)) x9) (or (not (= x106 x102)) x46))) (or (not (= x106 x148)) x140)) (or (not (= x96 x106)) x5)) (and (and (or (not (= x106 x57)) x31) (and (and (or x123 (not (= x106 x122))) (or x111 (not (= x106 x100)))) (or x29 x139))) (or x2 (not (= x106 x144))))))) (and (or (not (= x106 x64)) x136) (and (or (not (= x106 x47)) x53) (and (and (or x130 (not (= x109 x106))) (or x158 (not (= x106 x13)))) (or x37 x85))))) (or (and (and (and (or (not (= x95 x47)) x53) (and (or x85 (not (= x95 x77))) (and (or x2 x130) (or x158 (not (= x13 x95)))))) (or x136 (not (= x64 x95)))) (and (and (and (or x12 (not (= x95 x58))) (and (or (not (= x50 x95)) x16) (and (or x84 x31) (or x121 (not (= x94 x95)))))) (or (not (= x56 x95)) x33)) (and (and (and (and (and (or (not (= x124 x95)) x135) (and (or x111 x9) (or (not (= x102 x95)) x46))) (or x140 (not (= x95 x148)))) (or (not (= x95 x96)) x5)) (and (or x2 (not (= x95 x144))) (and (or x31 (not (= x95 x57))) (and (and (or x123 x123) (or x111 (not (= x95 x100)))) (or x29 (not (= x54 x95))))))) (and (and (and (or x101 (not (= x39 x95))) (and (or x10 (not (= x95 x75))) (or x139 x29))) (or (not (= x95 x117)) x20)) (or x37 (not (= x97 x95))))))) (and (and (and (and (and (or x2 (not (= x144 x74))) (and (and (and (or (not (= x74 x122)) x123) (or x9 x111)) (or (not (= x74 x54)) x29)) (or x31 (not (= x57 x74))))) (and (and (or x140 (not (= x148 x74))) (and (or (not (= x124 x74)) x135) (and (or x46 x46) (or x9 (not (= x43 x74)))))) (or x5 (not (= x96 x74))))) (and (and (and (or x101 (not (= x74 x39))) (and (or x10 x135) (or (not (= x8 x74)) x139))) (or (not (= x117 x74)) x20)) (or x37 (not (= x74 x97))))) (and (and (and (or x16 (not (= x74 x50))) (and (or x140 x121) (or (not (= x155 x74)) x84))) (or x12 (not (= x58 x74)))) (or (not (= x56 x74)) x33))) (and (or x136 (not (= x64 x74))) (and (and (and (or x130 (not (= x74 x109))) (or x5 x158)) (or (not (= x74 x77)) x85)) (or x53 (not (= x74 x47)))))))) (and (and (or (not (= x103 x64)) x136) (and (and (and (or x158 (not (= x13 x103))) (or (not (= x109 x103)) x130)) (or x85 (not (= x103 x77)))) (or x53 x33))) (and (and (and (and (or (not (= x144 x103)) x2) (and (or x84 x31) (and (or (not (= x103 x54)) x29) (and (or x123 (not (= x122 x103))) (or (not (= x103 x100)) x111))))) (and (or (not (= x96 x103)) x5) (and (and (or x135 (not (= x103 x124))) (and (or (not (= x103 x43)) x9) (or x46 (not (= x102 x103))))) (or x140 x121)))) (and (and (or x20 x16) (and (or (not (= x39 x103)) x101) (and (or (not (= x75 x103)) x10) (or x139 (not (= x8 x103)))))) (or x37 (not (= x97 x103))))) (and (and (or x12 x12) (and (or (not (= x103 x50)) x16) (and (or x121 (not (= x94 x103))) (or x84 (not (= x103 x155)))))) (or x33 (not (= x103 x56)))))))))))
(assert (and (= (x126 x95 x106) x40) (and (and (= (x126 x106 x106) x95) (= (x126 x103 x95) x74)) (= x103 (x126 x106 x95)))))
(assert (let ((x139 (x126 x40 x74)) (x123 (x126 x95 x74)) (x89 (x126 x40 x106)) (x66 (x126 x106 x40)) (x136 (x126 x106 x106)) (x2 (x126 x74 x103)) (x84 (x126 x106 x95)) (x102 (x126 x74 x74)) (x29 (x126 x74 x106)) (x16 (x126 x95 x103)) (x78 (x126 x103 x103)) (x33 (x126 x95 x40)) (x31 (x126 x106 x74)) (x121 (x126 x95 x106)) (x10 (x126 x74 x40)) (x100 (x126 x74 x95)) (x75 (x126 x103 x74)) (x114 (x126 x40 x103)) (x132 (x126 x106 x103)) (x12 (x126 x103 x95)) (x37 (x126 x95 x95)) (x13 (x126 x40 x95)) (x145 (x126 x103 x40)) (x48 (x126 x103 x106)) (x23 (x126 x40 x40))) (let ((x69 (= x37 x106)) (x60 (= x102 x40)) (x109 (= x13 x74)) (x11 (= x106 x84)) (x91 (= x48 x40)) (x138 (= x12 x40)) (x125 (= x100 x40)) (x76 (= x40 x139)) (x49 (= x106 x10)) (x3 (= x29 x106)) (x62 (= x100 x106)) (x119 (= x95 x23)) (x35 (= x136 x95)) (x94 (= x37 x95)) (x152 (= x78 x106)) (x151 (= x103 x136)) (x8 (= x84 x74)) (x7 (= x121 x40)) (x21 (= x75 x103)) (x79 (= x40 x29)) (x17 (= x33 x40)) (x153 (= x95 x12)) (x15 (= x103 x66)) (x86 (= x12 x106)) (x36 (= x40 x23)) (x93 (= x103 x132)) (x34 (= x78 x40)) (x39 (= x74 x136)) (x61 (= x13 x106)) (x137 (= x13 x40)) (x81 (= x114 x103)) (x118 (= x106 x139)) (x140 (= x75 x74)) (x32 (= x123 x106)) (x149 (= x95 x139)) (x26 (= x132 x95)) (x159 (= x103 x33)) (x47 (= x114 x74)) (x98 (= x103 x139)) (x55 (= x89 x106)) (x113 (= x40 x123)) (x99 (= x40 x136)) (x28 (= x106 x48)) (x146 (= x106 x23)) (x42 (= x75 x40)) (x9 (= x123 x74)) (x71 (= x95 x2)) (x51 (= x145 x40)) (x150 (= x10 x40)) (x63 (= x16 x95)) (x82 (= x106 x136)) (x68 (= x121 x106)) (x158 (= x95 x31)) (x22 (= x2 x103)) (x105 (= x95 x66)) (x96 (= x10 x74)) (x88 (= x95 x48)) (x112 (= x106 x145)) (x156 (= x103 x29)) (x90 (= x106 x102)) (x19 (= x106 x33)) (x85 (= x95 x84)) (x27 (= x16 x103)) (x135 (= x74 x31)) (x124 (= x74 x29)) (x155 (= x12 x74)) (x142 (= x103 x121)) (x44 (= x114 x40)) (x5 (= x74 x139)) (x38 (= x103 x78)) (x129 (= x145 x95)) (x73 (= x40 x89)) (x87 (= x2 x40)) (x57 (= x16 x74)) (x131 (= x95 x10)) (x116 (= x16 x106)) (x130 (= x29 x95)) (x25 (= x103 x89)) (x6 (= x132 x106)) (x83 (= x89 x95)) (x43 (= x100 x74)) (x53 (= x121 x95)) (x97 (= x74 x66)) (x144 (= x33 x74)) (x127 (= x95 x33)) (x122 (= x37 x74)) (x157 (= x66 x106)) (x64 (= x74 x23)) (x46 (= x102 x74)) (x1 (= x31 x40)) (x133 (= x103 x100)) (x143 (= x37 x103)) (x67 (= x103 x10)) (x134 (= x145 x103)) (x70 (= x103 x123)) (x54 (= x74 x121)) (x101 (= x95 x123)) (x104 (= x114 x95)) (x110 (= x40 x16)) (x128 (= x31 x106)) (x111 (= x102 x95)) (x65 (= x40 x37)) (x56 (= x74 x145)) (x115 (= x40 x66)) (x117 (= x74 x132)) (x141 (= x78 x95)) (x77 (= x74 x89)) (x80 (= x103 x48)) (x20 (= x95 x100)) (x107 (= x75 x106)) (x45 (= x40 x132)) (x4 (= x103 x23)) (x108 (= x102 x103)) (x18 (= x103 x84)) (x52 (= x84 x40)) (x148 (= x2 x74)) (x58 (= x74 x78)) (x24 (= x106 x2)) (x50 (= x48 x74)) (x30 (= x95 x13)) (x147 (= x31 x103)) (x14 (= x95 x75)) (x120 (= x106 x114)) (x92 (= x12 x103)) (x59 (= x13 x103))) (and (and (or (or (and x4 x4) (or (or (or (and x59 x159) (and x98 x67)) (and x25 x15)) (and x81 x134))) (or (or (or (or (or (or (and x142 x18) (or (and x133 x70) (and x143 x143))) (and x92 x27)) (and x159 x59)) (or (or (or (or (and x108 x108) (and x70 x133)) (and x156 x147)) (and x21 x22)) (and x98 x67))) (or (or (or (and x151 x151) (or (and x156 x147) (and x142 x18))) (and x93 x80)) (and x25 x15))) (or (and x81 x134) (or (and x38 x38) (or (or (and x27 x92) (and x21 x22)) (and x80 x93)))))) (and (and (or (or (or (or (or (or (and x14 x71) (and x153 x63)) (and x88 x26)) (and x141 x141)) (and x104 x129)) (or (or (or (or (or (and x53 x85) (or (and x94 x94) (and x20 x101))) (and x153 x63)) (and x127 x30)) (or (or (or (or (and x101 x20) (and x111 x111)) (and x158 x130)) (and x71 x14)) (and x149 x131))) (or (or (and x88 x26) (or (or (and x158 x130) (and x53 x85)) (and x35 x35))) (and x105 x83)))) (or (and x119 x119) (or (and x104 x129) (or (or (and x30 x127) (and x149 x131)) (and x105 x83))))) (or (or (and x64 x64) (or (and x47 x56) (or (or (and x96 x5) (and x144 x109)) (and x97 x77)))) (or (or (and x47 x56) (or (and x58 x58) (or (and x50 x117) (or (and x155 x57) (and x148 x140))))) (or (or (or (and x96 x5) (or (or (and x124 x135) (or (and x9 x43) (and x46 x46))) (and x140 x148))) (or (and x144 x109) (or (and x57 x155) (or (or (and x9 x43) (and x122 x122)) (and x8 x54))))) (or (or (or (and x39 x39) (or (and x124 x135) (and x8 x54))) (and x117 x50)) (and x97 x77)))))) (or (or (or (and x120 x112) (or (and x152 x152) (or (or (and x86 x116) (and x24 x107)) (and x28 x6)))) (or (or (or (or (or (or (and x62 x32) (and x90 x90)) (and x3 x128)) (and x24 x107)) (and x118 x49)) (or (and x19 x61) (or (and x116 x86) (or (and x68 x11) (or (and x69 x69) (and x62 x32)))))) (or (and x157 x55) (or (or (or (and x68 x11) (and x128 x3)) (and x82 x82)) (and x6 x28))))) (or (and x146 x146) (or (or (or (and x49 x118) (and x61 x19)) (and x157 x55)) (and x120 x112)))))) (or (or (or (or (or (or (or (or (and x113 x125) (and x65 x65)) (and x52 x7)) (and x110 x138)) (and x137 x17)) (or (and x150 x76) (or (and x42 x87) (or (or (and x113 x125) (and x60 x60)) (and x79 x1))))) (or (and x73 x115) (or (and x45 x91) (or (or (and x79 x1) (and x52 x7)) (and x99 x99))))) (or (or (or (and x45 x91) (or (and x87 x42) (and x138 x110))) (and x34 x34)) (and x44 x51))) (or (and x36 x36) (or (and x44 x51) (or (or (and x76 x150) (and x17 x137)) (and x115 x73)))))))))
(assert (and (and (not (= x106 x40)) (and (not (= x106 x103)) (and (not (= x40 x95)) (and (not (= x103 x95)) (and (not (= x106 x95)) (and (not (= x74 x40)) (and (not (= x74 x103)) (and (not (= x74 x106)) (not (= x95 x74)))))))))) (not (= x40 x103))))
(assert (and (or (not (= (x126 (x126 x40 x40) x40) x40)) (or (not (= (x126 (x126 x103 x40) x40) x103)) (or (or (not (= (x126 (x126 x74 x40) x40) x74)) (not (= x95 (x126 (x126 x95 x40) x40)))) (not (= (x126 (x126 x106 x40) x40) x106))))) (and (and (and (or (or (not (= x103 (x126 (x126 x103 x95) x95))) (or (or (not (= (x126 (x126 x95 x95) x95) x95)) (not (= x74 (x126 (x126 x74 x95) x95)))) (not (= (x126 (x126 x106 x95) x95) x106)))) (not (= (x126 (x126 x40 x95) x95) x40))) (or (or (not (= (x126 (x126 x103 x74) x74) x103)) (or (not (= (x126 (x126 x106 x74) x74) x106)) (or (not (= x74 (x126 (x126 x74 x74) x74))) (not (= (x126 (x126 x95 x74) x74) x95))))) (not (= x40 (x126 (x126 x40 x74) x74))))) (or (not (= x40 (x126 (x126 x40 x106) x106))) (or (or (not (= (x126 (x126 x106 x106) x106) x106)) (or (not (= (x126 (x126 x95 x106) x106) x95)) (not (= x74 (x126 (x126 x74 x106) x106))))) (not (= x103 (x126 (x126 x103 x106) x106)))))) (or (or (not (= (x126 (x126 x103 x103) x103) x103)) (or (or (not (= x74 (x126 (x126 x74 x103) x103))) (not (= x95 (x126 (x126 x95 x103) x103)))) (not (= x106 (x126 (x126 x106 x103) x103))))) (not (= x40 (x126 (x126 x40 x103) x103)))))))
(assert (let ((x47 (x126 x106 x40)) (x43 (x126 x106 x74)) (x135 (x126 x40 x74)) (x117 (x126 x40 x106)) (x64 (x126 x40 x40)) (x77 (x126 x74 x40)) (x9 (x126 x95 x74)) (x5 (x126 x95 x103)) (x46 (x126 x74 x74)) (x109 (x126 x103 x103)) (x50 (x126 x103 x106)) (x56 (x126 x103 x40)) (x148 (x126 x74 x106)) (x58 (x126 x74 x103)) (x8 (x126 x95 x95)) (x124 (x126 x74 x95)) (x155 (x126 x95 x106)) (x96 (x126 x106 x103)) (x39 (x126 x103 x95)) (x144 (x126 x40 x103)) (x140 (x126 x40 x95)) (x54 (x126 x106 x95)) (x97 (x126 x95 x40)) (x122 (x126 x103 x74)) (x57 (x126 x106 x106))) (and (and (and (and (and (and (not (= x97 x64)) (and (and (and (and (not (= x56 x77)) (and (not (= x77 x47)) (not (= x97 x77)))) (not (= x77 x64))) (not (= x47 x97))) (not (= x97 x56)))) (not (= x47 x56))) (not (= x64 x47))) (not (= x64 x56))) (and (and (and (and (and (and (and (and (and (and (and (and (not (= x124 x54)) (not (= x124 x8))) (not (= x39 x124))) (not (= x140 x124))) (not (= x54 x8))) (not (= x39 x8))) (not (= x140 x8))) (not (= x54 x39))) (not (= x54 x140))) (not (= x140 x39))) (and (not (= x135 x122)) (and (and (and (and (and (not (= x9 x43)) (and (and (not (= x46 x122)) (and (not (= x9 x46)) (not (= x43 x46)))) (not (= x46 x135)))) (not (= x9 x122))) (not (= x9 x135))) (not (= x122 x43))) (not (= x43 x135))))) (and (not (= x117 x50)) (and (not (= x117 x57)) (and (and (not (= x117 x155)) (and (not (= x50 x155)) (and (not (= x155 x57)) (and (not (= x117 x148)) (and (and (not (= x155 x148)) (not (= x57 x148))) (not (= x50 x148))))))) (not (= x57 x50)))))) (and (and (not (= x144 x96)) (and (not (= x109 x96)) (and (and (and (and (not (= x58 x144)) (and (not (= x58 x109)) (and (not (= x58 x5)) (not (= x96 x58))))) (not (= x5 x96))) (not (= x109 x5))) (not (= x5 x144))))) (not (= x109 x144))))) (and (and (not (= x144 x64)) (and (not (= x64 x117)) (and (and (not (= x64 x140)) (and (not (= x140 x144)) (and (and (and (not (= x135 x144)) (and (not (= x140 x135)) (not (= x117 x135)))) (not (= x135 x64))) (not (= x140 x117))))) (not (= x117 x144))))) (and (and (and (and (and (and (not (= x5 x155)) (and (not (= x8 x97)) (and (not (= x8 x5)) (and (not (= x155 x8)) (and (and (and (not (= x155 x9)) (not (= x9 x8))) (not (= x9 x5))) (not (= x9 x97))))))) (not (= x97 x155))) (not (= x97 x5))) (and (not (= x77 x58)) (and (not (= x148 x77)) (and (and (not (= x124 x77)) (and (not (= x124 x58)) (and (not (= x148 x124)) (and (not (= x46 x77)) (and (and (not (= x124 x46)) (not (= x148 x46))) (not (= x58 x46))))))) (not (= x148 x58)))))) (and (and (and (not (= x96 x57)) (and (and (not (= x96 x54)) (and (and (not (= x43 x47)) (and (and (not (= x54 x43)) (not (= x43 x57))) (not (= x96 x43)))) (not (= x57 x54)))) (not (= x47 x54)))) (not (= x47 x57))) (not (= x96 x47)))) (and (and (not (= x50 x56)) (and (and (not (= x56 x39)) (and (not (= x109 x39)) (and (and (and (not (= x109 x122)) (and (not (= x122 x39)) (not (= x50 x122)))) (not (= x122 x56))) (not (= x39 x50))))) (not (= x109 x50)))) (not (= x109 x56))))))))
(assert (let ((x9 (x126 x74 x74)) (x122 (x126 x106 x106)) (x124 (x126 x40 x40)) (x43 (x126 x95 x95)) (x135 (x126 x103 x103))) (let ((x50 (= x135 x103)) (x46 (= x9 x74)) (x57 (= x122 x106)) (x54 (= x95 x43)) (x117 (= x40 x124))) (let ((x148 (and (not (= x103 x124)) (and (not x50) (and (not (= x103 x122)) (and (not (= x9 x103)) (not (= x103 x43))))))) (x140 (and (and (and (not x57) (and (not (= x106 x9)) (not (= x106 x43)))) (not (= x135 x106))) (not (= x106 x124)))) (x155 (and (not x117) (and (and (and (not (= x9 x40)) (not (= x40 x43))) (not (= x40 x122))) (not (= x40 x135))))) (x8 (and (and (and (not (= x74 x122)) (and (not (= x43 x74)) (not x46))) (not (= x135 x74))) (not (= x74 x124)))) (x39 (and (and (and (and (not (= x9 x95)) (not x54)) (not (= x122 x95))) (not (= x95 x135))) (not (= x95 x124))))) (or (or (or (or (and x50 x148) (or (or (and (= (x126 x103 x95) x103) x39) (and x8 (= x103 (x126 x103 x74)))) (and (= x103 (x126 x103 x106)) x140))) (and (= x103 (x126 x103 x40)) x155)) (or (or (and (= (x126 x106 x40) x106) x155) (or (or (and x57 x140) (or (and (= x106 (x126 x106 x74)) x8) (and (= (x126 x106 x95) x106) x39))) (and x148 (= (x126 x106 x103) x106)))) (or (or (and (= (x126 x74 x40) x74) x155) (or (or (and x140 (= (x126 x74 x106) x74)) (or (and x46 x8) (and (= x74 (x126 x74 x95)) x39))) (and (= x74 (x126 x74 x103)) x148))) (or (and (= (x126 x95 x40) x95) x155) (or (and (= x95 (x126 x95 x103)) x148) (or (or (and (= x95 (x126 x95 x74)) x8) (and x39 x54)) (and x140 (= (x126 x95 x106) x95)))))))) (or (and x155 x117) (or (or (or (and x8 (= (x126 x40 x74) x40)) (and x39 (= (x126 x40 x95) x40))) (and x140 (= (x126 x40 x106) x40))) (and x148 (= x40 (x126 x40 x103))))))))))
(assert (not (and (= (x126 x40 x40) x74) (and (= (x126 x40 x103) x95) (and (and (and (= (x126 x40 x74) x106) (and (= x95 (x126 x103 x40)) (and (= (x126 x103 x103) x103) (and (and (= x74 (x126 x103 x95)) (and (and (and (= (x126 x106 x103) x106) (and (and (= x103 (x126 x106 x95)) (and (and (and (and (= (x126 x95 x106) x40) (and (and (= (x126 x95 x74) x103) (and (= x103 (x126 x74 x40)) (and (and (= (x126 x74 x106) x74) (and (= x106 (x126 x74 x95)) (= (x126 x74 x74) x95))) (= (x126 x74 x103) x40)))) (= x95 (x126 x95 x95)))) (= (x126 x95 x103) x74)) (= (x126 x95 x40) x106)) (= x74 (x126 x106 x74)))) (= (x126 x106 x106) x95))) (= x40 (x126 x106 x40))) (= x40 (x126 x103 x74)))) (= (x126 x103 x106) x106))))) (= (x126 x40 x95) x40)) (= x103 (x126 x40 x106)))))))
(assert (let ((x97 (x126 x95 x40)) (x111 (x126 x40 x95)) (x68 (x126 x40 x103)) (x67 (x126 x40 x40)) (x135 (x126 x74 x103)) (x124 (x126 x74 x40)) (x33 (x126 x106 x106)) (x39 (x126 x106 x74)) (x43 (x126 x74 x95)) (x144 (x126 x95 x106)) (x9 (x126 x74 x74)) (x77 (x126 x95 x103)) (x122 (x126 x74 x106)) (x140 (x126 x103 x74)) (x32 (x126 x103 x103)) (x62 (x126 x103 x40)) (x136 (x126 x103 x106)) (x35 (x126 x40 x106)) (x158 (x126 x106 x40)) (x54 (x126 x95 x74)) (x148 (x126 x40 x74)) (x102 (x126 x103 x95)) (x109 (x126 x95 x95)) (x13 (x126 x106 x103)) (x64 (x126 x106 x95))) (let ((x75 (= x103 x109)) (x133 (= x40 x13)) (x26 (= x103 x33)) (x139 (= x40 x43)) (x58 (= x43 x74)) (x76 (= x148 x40)) (x65 (= x97 x106)) (x121 (= x74 x144)) (x132 (= x39 x106)) (x30 (= x102 x74)) (x110 (= x97 x103)) (x81 (= x95 x67)) (x92 (= x74 x62)) (x1 (= x158 x106)) (x23 (= x140 x95)) (x88 (= x103 x144)) (x55 (= x103 x13)) (x42 (= x103 x35)) (x143 (= x40 x32)) (x79 (= x106 x62)) (x11 (= x95 x32)) (x53 (= x95 x33)) (x70 (= x40 x77)) (x91 (= x103 x158)) (x85 (= x144 x95)) (x3 (= x13 x95)) (x98 (= x95 x68)) (x159 (= x95 x97)) (x116 (= x77 x106)) (x56 (= x109 x95)) (x83 (= x135 x74)) (x22 (= x158 x74)) (x29 (= x106 x109)) (x19 (= x77 x103)) (x118 (= x102 x103)) (x138 (= x124 x103)) (x141 (= x64 x40)) (x127 (= x74 x136)) (x94 (= x122 x74)) (x38 (= x95 x35)) (x104 (= x13 x74)) (x15 (= x62 x95)) (x46 (= x74 x9)) (x93 (= x111 x95)) (x51 (= x62 x40)) (x59 (= x124 x95)) (x27 (= x74 x67)) (x20 (= x74 x39)) (x153 (= x103 x64)) (x150 (= x111 x40)) (x114 (= x144 x40)) (x25 (= x95 x158)) (x66 (= x106 x122)) (x149 (= x33 x40)) (x24 (= x106 x136)) (x6 (= x32 x106)) (x157 (= x103 x32)) (x117 (= x54 x74)) (x61 (= x103 x135)) (x28 (= x13 x106)) (x5 (= x109 x74)) (x18 (= x35 x74)) (x89 (= x144 x106)) (x80 (= x148 x95)) (x37 (= x64 x74)) (x123 (= x43 x106)) (x129 (= x74 x32)) (x107 (= x102 x106)) (x155 (= x9 x106)) (x115 (= x97 x40)) (x145 (= x122 x40)) (x34 (= x103 x67)) (x57 (= x103 x9)) (x86 (= x135 x106)) (x147 (= x74 x148)) (x152 (= x140 x103)) (x4 (= x106 x111)) (x142 (= x68 x74)) (x47 (= x95 x43)) (x105 (= x74 x77)) (x119 (= x102 x95)) (x49 (= x103 x136)) (x100 (= x106 x54)) (x82 (= x106 x140)) (x99 (= x111 x103)) (x146 (= x136 x40)) (x50 (= x40 x9)) (x156 (= x74 x111)) (x120 (= x40 x140)) (x113 (= x68 x106)) (x44 (= x40 x158)) (x7 (= x103 x148)) (x12 (= x95 x64)) (x125 (= x106 x124)) (x16 (= x39 x95)) (x84 (= x33 x74)) (x73 (= x124 x40)) (x130 (= x122 x95)) (x71 (= x39 x103)) (x8 (= x95 x9)) (x21 (= x97 x74)) (x63 (= x122 x103)) (x10 (= x40 x54)) (x151 (= x74 x124)) (x14 (= x33 x106)) (x112 (= x40 x102)) (x90 (= x95 x136)) (x69 (= x135 x95)) (x87 (= x68 x103)) (x36 (= x40 x67)) (x17 (= x40 x68)) (x52 (= x67 x106)) (x31 (= x103 x54)) (x134 (= x106 x148)) (x60 (= x106 x35)) (x45 (= x103 x62)) (x96 (= x95 x54)) (x48 (= x64 x106)) (x101 (= x109 x40)) (x137 (= x40 x35)) (x78 (= x39 x40)) (x131 (= x74 x140)) (x108 (= x135 x40)) (x128 (= x77 x95)) (x2 (= x43 x103))) (and (and (and (and (and (and (and (or (or (or x71 (or x31 x57)) x152) x7) (or (or (or x63 (or x2 x57)) x61) x138)) (and (and (or (or x86 (or (or x123 x155) x66)) x125) (or (or x82 (or (or x155 x100) x132)) x134)) (and (and (or x59 (or x69 (or (or x8 x47) x130))) (or (or (or (or x8 x96) x16) x23) x80)) (and (or (or x131 (or x20 (or x117 x46))) x147) (or (or x83 (or (or x58 x46) x94)) x151))))) (and (or (or (or x145 (or x50 x139)) x108) x73) (or (or x120 (or (or x10 x50) x78)) x76))) (and (and (or (or x70 (or x114 (or x101 x10))) x115) (or (or (or (or x139 x101) x141) x112) x150)) (and (and (and (or (or x107 (or (or x29 x123) x48)) x4) (or (or (or (or x29 x100) x89) x116) x65)) (and (and (or (or (or x37 (or x58 x5)) x30) x156) (or (or (or x121 (or x117 x5)) x105) x21)) (and (or x159 (or x128 (or x85 (or x56 x96)))) (or x93 (or (or x12 (or x56 x47)) x119))))) (and (or x110 (or x19 (or (or x31 x75) x88))) (or x99 (or (or (or x75 x2) x153) x118)))))) (and (and (or (or (or x149 (or x114 x145)) x146) x137) (or (or x133 (or (or x141 x78) x149)) x44)) (and (and (and (and (or (or x90 (or (or x130 x85) x53)) x38) (or (or (or x53 (or x16 x12)) x3) x25)) (and (or x18 (or (or (or x94 x121) x84) x127)) (or (or (or (or x37 x20) x84) x104) x22))) (and (or x1 (or (or (or x48 x132) x14) x28)) (or (or x24 (or (or x66 x89) x14)) x60))) (and (or (or (or (or x63 x88) x26) x49) x42) (or (or (or x26 (or x71 x153)) x55) x91))))) (and (and (or (or (or x146 (or x112 x120)) x143) x51) (or x17 (or x143 (or (or x108 x70) x133)))) (and (and (and (or x79 (or x6 (or x24 (or x107 x82)))) (or (or (or x28 (or x86 x116)) x6) x113)) (and (and (or x15 (or x11 (or (or x23 x119) x90))) (or (or x11 (or x3 (or x128 x69))) x98)) (and (or x92 (or x129 (or x127 (or x131 x30)))) (or x142 (or (or x104 (or x83 x105)) x129))))) (and (or (or (or x49 (or x118 x152)) x157) x45) (or x87 (or x157 (or x55 (or x61 x19)))))))) (and (and (or x36 (or (or (or x115 x73) x44) x51)) (or x36 (or x17 (or (or x76 x150) x137)))) (and (and (or (or (or (or x7 x99) x42) x87) x34) (or x34 (or x45 (or (or x138 x110) x91)))) (and (and (or x52 (or (or (or x65 x125) x1) x79)) (or (or (or (or x4 x134) x60) x113) x52)) (and (and (or x27 (or (or (or x151 x21) x22) x92)) (or x27 (or (or x18 (or x156 x147)) x142))) (and (or (or (or (or x159 x59) x25) x15) x81) (or (or x98 (or x38 (or x80 x93))) x81))))))))))
(assert (or (or (or (or (and (and (and (not (= x106 (x126 (x126 x106 x95) x95))) (and (not (= x74 (x126 (x126 x74 x95) x95))) (not (= (x126 (x126 x95 x95) x95) x95)))) (not (= (x126 (x126 x103 x95) x95) x103))) (not (= (x126 (x126 x40 x95) x95) x40))) (and (not (= x40 (x126 (x126 x40 x74) x74))) (and (not (= x103 (x126 (x126 x103 x74) x74))) (and (not (= x106 (x126 (x126 x106 x74) x74))) (and (not (= x95 (x126 (x126 x95 x74) x74))) (not (= (x126 (x126 x74 x74) x74) x74))))))) (and (and (and (and (not (= (x126 (x126 x95 x106) x106) x95)) (not (= x74 (x126 (x126 x74 x106) x106)))) (not (= (x126 (x126 x106 x106) x106) x106))) (not (= (x126 (x126 x103 x106) x106) x103))) (not (= x40 (x126 (x126 x40 x106) x106))))) (and (not (= (x126 (x126 x40 x103) x103) x40)) (and (not (= (x126 (x126 x103 x103) x103) x103)) (and (and (not (= x74 (x126 (x126 x74 x103) x103))) (not (= x95 (x126 (x126 x95 x103) x103)))) (not (= x106 (x126 (x126 x106 x103) x103))))))) (and (and (and (and (not (= x74 (x126 (x126 x74 x40) x40))) (not (= x95 (x126 (x126 x95 x40) x40)))) (not (= (x126 (x126 x106 x40) x40) x106))) (not (= (x126 (x126 x103 x40) x40) x103))) (not (= (x126 (x126 x40 x40) x40) x40)))))
(check-sat)
(exit)
